32      4       
10      10      10      10      
0       0       0       0       0       2       2       4       
6       0       1       1       1       2       3       7       
8       1       3       8       0       2       5       8       
4       0       7       2       6       2       5       8       
2       0       4       6       2       1       6       
8       3       0       2       7       2       9       11      
1       7       0       3       5       1       8       
6       6       4       4       0       2       10      11      
7       5       4       2       0       3       10      12      15      
6       5       2       3       0       4       13      14      16      19      
8       3       4       0       3       3       12      13      15      
5       3       0       4       1       3       17      19      21      
9       4       4       0       5       2       17      21      
9       3       9       2       0       2       17      21      
1       4       0       10      6       1       17      
1       8       0       5       5       3       20      21      23      
5       5       3       0       2       1       18      
4       4       5       0       3       2       20      23      
4       0       3       7       3       3       22      23      25      
4       0       4       4       5       2       22      25      
3       7       3       2       0       2       24      25      
8       2       4       0       6       1       24      
3       5       4       0       3       1       24      
5       2       5       4       0       3       26      28      29      
4       3       1       5       0       2       26      28      
5       1       7       3       0       2       27      30      
7       4       4       4       0       1       31      
7       4       4       0       5       1       30      
6       2       0       4       4       1       30      
7       1       0       3       4       1       32      
8       8       3       0       4       1       32      
0       0       0       0       0       0       
